(set-option :smt.threads 2)
(declare-const a string)
(declare-const b string)
(declare-const c string)
(declare-const d string)
(assert (distinct c d))
(assert (= (str.++ a d b) (str.++ d c)))
(check-sat)
(get-model)